(declare-const conc0 Real)
(assert (and (>= conc0 0) (<= conc0 100)))
(declare-const conc1 Real)
(assert (and (>= conc1 0) (<= conc1 100)))
(declare-const conc2 Real)
(assert (and (>= conc2 0) (<= conc2 100)))
(declare-const conc3 Real)
(assert (and (>= conc3 0) (<= conc3 100)))
(declare-const conc4 Real)
(assert (and (>= conc4 0) (<= conc4 100)))
(declare-const d_ent0 Real)
(declare-const dC_ent0 Real)
(declare-const d_ent1 Real)
(declare-const dC_ent1 Real)
(declare-const d_ent2 Real)
(declare-const dC_ent2 Real)
(declare-const d_ent3 Real)
(declare-const dC_ent3 Real)
(declare-const d_ent4 Real)
(declare-const dC_ent4 Real)
(declare-const d_flow0 Real)
(declare-const d_flow1 Real)
(declare-const d_flow2 Real)
(declare-const d_flow3 Real)
(declare-const d_flow4 Real)
(declare-const coef0 Real)
(assert (= coef0 (- (* 0.3062633574 conc0 conc1 ) (* 0.2482545823 conc2 ))))
(declare-const coef1 Real)
(assert (= coef1 (- (* 0.0707227662 conc0 conc2 ) (* 0.1657154411 conc3 ))))
(declare-const coef3 Real)
(assert (= coef3 (- (* 0.2284028530 conc0 conc3 ) (* 0.1184950024 conc4 ))))
(declare-const coef4 Real)
(assert (= coef4 (- (* 0.2613496780 conc1 conc2 ) (* 0.3678794503 conc4 ))))
(assert (> (+ (- coef0) (- coef1) (- coef3) 0) 0.0010000000))
(assert (> (+ coef0 (- coef1) (- coef4) 0) 0.0010000000))
(assert (> (+ coef1 (- coef3) 0) 0.0010000000))
(assert (> (+ coef3 coef4 0) 0.0010000000))
(declare-const coef2 Real)
(assert (= coef2 (- (* 0.3791519701 conc1 conc1 ) (* 0.8338744044 conc3 ))))
(assert (= dC_ent0 (+ (- coef0) (- coef1) (- coef3) 0)))
(assert (= dC_ent1 (+ (- coef0) (- coef4) 0)))
(assert (= dC_ent2 (+ coef0 (- coef1) (- coef4) 0)))
(assert (= dC_ent3 (+ coef1 (- coef3) 0)))
(assert (= dC_ent4 (+ coef3 coef4 0)))
(assert (= d_ent0 (+ (- coef0) (- coef1) (- coef3) 10.6979265213 (* -1. 0.5000000000 conc0))))
(assert (= d_ent1 (+ (- coef0) (- coef2) (- coef2) (- coef4) 0.0000000000 (* -1. 0.5000000000 conc1))))
(assert (= d_ent2 (+ coef0 (- coef1) (- coef4) 0.0000000000 (* -1. 0.5000000000 conc2))))
(assert (= d_ent3 (+ coef1 coef2 (- coef3) 0.0000000000 (* -1. 0.5000000000 conc3))))
(assert (= d_ent4 (+ coef3 coef4 0.0000000000 (* -1. 0.5000000000 conc4))))
(assert (= d_flow0 (* coef0 (+ (* 0.3062633574 (+ (* d_ent0 conc1) (* d_ent1 conc0))) (* (- 0.2482545823 ) d_ent2)))))
(assert (= d_flow1 (* coef1 (+ (* 0.0707227662 (+ (* d_ent0 conc2) (* d_ent2 conc0))) (* (- 0.1657154411 ) d_ent3)))))
(assert (= d_flow3 (* coef3 (+ (* 0.2284028530 (+ (* d_ent0 conc3) (* d_ent3 conc0))) (* (- 0.1184950024 ) d_ent4)))))
(assert (= d_flow4 (* coef4 (+ (* 0.2613496780 (+ (* d_ent1 conc2) (* d_ent2 conc1))) (* (- 0.3678794503 ) d_ent4)))))
(assert (or (< dC_ent0 0.0020000001) (< dC_ent2 0.0020000001) (< dC_ent3 0.0020000001) (< dC_ent4 0.0020000001)))
(assert (or (> dC_ent0 0.0020000001) (> (+ (- d_flow0) (- d_flow1) (- d_flow3) 0) 0.1000000015)))
(assert (or (> dC_ent2 0.0020000001) (> (+ d_flow0 (- d_flow1) (- d_flow4) 0) 0.1000000015)))
(assert (or (> dC_ent3 0.0020000001) (> (+ d_flow1 (- d_flow3) 0) 0.1000000015)))
(assert (or (> dC_ent4 0.0020000001) (> (+ d_flow3 d_flow4 0) 0.1000000015)))
(check-sat)
(get-model)
